0 67 
1 67 
2 67 
3 65 
4 66 
5 66 
6 63 
7 64 
8 63 
9 62 
10 61 
11 58 
12 54 
13 54 
14 54 
15 54 
16 53 
17 52 
18 50 
19 49 
20 50 
21 49 
22 47 
23 47 
24 46 
25 45 
26 44 
27 45 
28 44 
29 40 
30 39 
31 37 
32 34 
33 34 
34 33 
35 30 
36 28 
37 26 
38 26 
39 24 
40 23 
41 22 
42 22 
43 22 
44 20 
45 19 
46 18 
47 18 
48 16 
49 16 
50 15 
51 13 
52 13 
53 13 
54 13 
55 12 
56 11 
57 14 
58 14 
59 14 
60 13 
61 12 
62 11 
63 10 
64 10 
65 9 
66 8 
67 9 
68 9 
69 9 
70 7 
71 4 
72 3 
73 2 
74 1 
75 0 
76 0 

